pruebas/prueba4.lp
max : Dx + Dy;

Ax - 1 c1 - 3 c2 - 6 c3 - 9 c4 - 12 c5 - 15 c6 - 18 c7 - 1 c8 - 12 c9 - 12 c10 - 12 c11 - 12 c12 - 12 c13 - 12 c14 - 12 c15 - 12 c16 - 23 c17 - 21 c18 - 23 c19 - 23 c20 <= Dx;

Ay - 3 c1 - 15 c2 - 15 c3 - 15 c4 - 15 c5 - 15 c6 - 15 c7 - 24 c8 - 3 c9 - 6 c10 - 9 c11 - 12 c12 - 15 c13 - 18 c14 - 21 c15 - 24 c16 - 3 c17 - 15 c18 - 15 c19 - 24 c20 <= Dy;

1 c1 - 3 c2 - 6 c3 - 9 c4 - 12 c5 - 15 c6 - 18 c7 - 1 c8 - 12 c9 - 12 c10 - 12 c11 - 12 c12 - 12 c13 - 12 c14 - 12 c15 - 12 c16 - 23 c17 - 21 c18 - 23 c19 - 23 c20 - Ax <= Dx;

3 c1 - 15 c2 - 15 c3 - 15 c4 - 15 c5 - 15 c6 - 15 c7 - 24 c8 - 3 c9 - 6 c10 - 9 c11 - 12 c12 - 15 c13 - 18 c14 - 21 c15 - 24 c16 - 3 c17 - 15 c18 - 15 c19 - 24 c20 - Ay <= Dy;

Ax - 1 + 50 Sx1 - Dx1 >= 0;
Ax - 1 + 50 Sx1 + Dx1 <= 50;
Ax - 1 <= Dx1;
1 - Ax <= Dx1;

Ay - 3 + 50 Sy1 - Dy1 >= 0;
Ay - 3 + 50 Sy1 + Dy1 <= 50;
Ay - 3 <= Dy1;
3 - Ay <= Dy1;

Ax - 3 + 50 Sx2 - Dx2 >= 0;
Ax - 3 + 50 Sx2 + Dx2 <= 50;
Ax - 3 <= Dx2;
3 - Ax <= Dx2;

Ay - 15 + 50 Sy2 - Dy2 >= 0;
Ay - 15 + 50 Sy2 + Dy2 <= 50;
Ay - 15 <= Dy2;
15 - Ay <= Dy2;

Ax - 6 + 50 Sx3 - Dx3 >= 0;
Ax - 6 + 50 Sx3 + Dx3 <= 50;
Ax - 6 <= Dx3;
6 - Ax <= Dx3;

Ay - 15 + 50 Sy3 - Dy3 >= 0;
Ay - 15 + 50 Sy3 + Dy3 <= 50;
Ay - 15 <= Dy3;
15 - Ay <= Dy3;

Ax - 9 + 50 Sx4 - Dx4 >= 0;
Ax - 9 + 50 Sx4 + Dx4 <= 50;
Ax - 9 <= Dx4;
9 - Ax <= Dx4;

Ay - 15 + 50 Sy4 - Dy4 >= 0;
Ay - 15 + 50 Sy4 + Dy4 <= 50;
Ay - 15 <= Dy4;
15 - Ay <= Dy4;

Ax - 12 + 50 Sx5 - Dx5 >= 0;
Ax - 12 + 50 Sx5 + Dx5 <= 50;
Ax - 12 <= Dx5;
12 - Ax <= Dx5;

Ay - 15 + 50 Sy5 - Dy5 >= 0;
Ay - 15 + 50 Sy5 + Dy5 <= 50;
Ay - 15 <= Dy5;
15 - Ay <= Dy5;

Ax - 15 + 50 Sx6 - Dx6 >= 0;
Ax - 15 + 50 Sx6 + Dx6 <= 50;
Ax - 15 <= Dx6;
15 - Ax <= Dx6;

Ay - 15 + 50 Sy6 - Dy6 >= 0;
Ay - 15 + 50 Sy6 + Dy6 <= 50;
Ay - 15 <= Dy6;
15 - Ay <= Dy6;

Ax - 18 + 50 Sx7 - Dx7 >= 0;
Ax - 18 + 50 Sx7 + Dx7 <= 50;
Ax - 18 <= Dx7;
18 - Ax <= Dx7;

Ay - 15 + 50 Sy7 - Dy7 >= 0;
Ay - 15 + 50 Sy7 + Dy7 <= 50;
Ay - 15 <= Dy7;
15 - Ay <= Dy7;

Ax - 1 + 50 Sx8 - Dx8 >= 0;
Ax - 1 + 50 Sx8 + Dx8 <= 50;
Ax - 1 <= Dx8;
1 - Ax <= Dx8;

Ay - 24 + 50 Sy8 - Dy8 >= 0;
Ay - 24 + 50 Sy8 + Dy8 <= 50;
Ay - 24 <= Dy8;
24 - Ay <= Dy8;

Ax - 12 + 50 Sx9 - Dx9 >= 0;
Ax - 12 + 50 Sx9 + Dx9 <= 50;
Ax - 12 <= Dx9;
12 - Ax <= Dx9;

Ay - 3 + 50 Sy9 - Dy9 >= 0;
Ay - 3 + 50 Sy9 + Dy9 <= 50;
Ay - 3 <= Dy9;
3 - Ay <= Dy9;

Ax - 12 + 50 Sx10 - Dx10 >= 0;
Ax - 12 + 50 Sx10 + Dx10 <= 50;
Ax - 12 <= Dx10;
12 - Ax <= Dx10;

Ay - 6 + 50 Sy10 - Dy10 >= 0;
Ay - 6 + 50 Sy10 + Dy10 <= 50;
Ay - 6 <= Dy10;
6 - Ay <= Dy10;

Ax - 12 + 50 Sx11 - Dx11 >= 0;
Ax - 12 + 50 Sx11 + Dx11 <= 50;
Ax - 12 <= Dx11;
12 - Ax <= Dx11;

Ay - 9 + 50 Sy11 - Dy11 >= 0;
Ay - 9 + 50 Sy11 + Dy11 <= 50;
Ay - 9 <= Dy11;
9 - Ay <= Dy11;

Ax - 12 + 50 Sx12 - Dx12 >= 0;
Ax - 12 + 50 Sx12 + Dx12 <= 50;
Ax - 12 <= Dx12;
12 - Ax <= Dx12;

Ay - 12 + 50 Sy12 - Dy12 >= 0;
Ay - 12 + 50 Sy12 + Dy12 <= 50;
Ay - 12 <= Dy12;
12 - Ay <= Dy12;

Ax - 12 + 50 Sx13 - Dx13 >= 0;
Ax - 12 + 50 Sx13 + Dx13 <= 50;
Ax - 12 <= Dx13;
12 - Ax <= Dx13;

Ay - 15 + 50 Sy13 - Dy13 >= 0;
Ay - 15 + 50 Sy13 + Dy13 <= 50;
Ay - 15 <= Dy13;
15 - Ay <= Dy13;

Ax - 12 + 50 Sx14 - Dx14 >= 0;
Ax - 12 + 50 Sx14 + Dx14 <= 50;
Ax - 12 <= Dx14;
12 - Ax <= Dx14;

Ay - 18 + 50 Sy14 - Dy14 >= 0;
Ay - 18 + 50 Sy14 + Dy14 <= 50;
Ay - 18 <= Dy14;
18 - Ay <= Dy14;

Ax - 12 + 50 Sx15 - Dx15 >= 0;
Ax - 12 + 50 Sx15 + Dx15 <= 50;
Ax - 12 <= Dx15;
12 - Ax <= Dx15;

Ay - 21 + 50 Sy15 - Dy15 >= 0;
Ay - 21 + 50 Sy15 + Dy15 <= 50;
Ay - 21 <= Dy15;
21 - Ay <= Dy15;

Ax - 12 + 50 Sx16 - Dx16 >= 0;
Ax - 12 + 50 Sx16 + Dx16 <= 50;
Ax - 12 <= Dx16;
12 - Ax <= Dx16;

Ay - 24 + 50 Sy16 - Dy16 >= 0;
Ay - 24 + 50 Sy16 + Dy16 <= 50;
Ay - 24 <= Dy16;
24 - Ay <= Dy16;

Ax - 23 + 50 Sx17 - Dx17 >= 0;
Ax - 23 + 50 Sx17 + Dx17 <= 50;
Ax - 23 <= Dx17;
23 - Ax <= Dx17;

Ay - 3 + 50 Sy17 - Dy17 >= 0;
Ay - 3 + 50 Sy17 + Dy17 <= 50;
Ay - 3 <= Dy17;
3 - Ay <= Dy17;

Ax - 21 + 50 Sx18 - Dx18 >= 0;
Ax - 21 + 50 Sx18 + Dx18 <= 50;
Ax - 21 <= Dx18;
21 - Ax <= Dx18;

Ay - 15 + 50 Sy18 - Dy18 >= 0;
Ay - 15 + 50 Sy18 + Dy18 <= 50;
Ay - 15 <= Dy18;
15 - Ay <= Dy18;

Ax - 23 + 50 Sx19 - Dx19 >= 0;
Ax - 23 + 50 Sx19 + Dx19 <= 50;
Ax - 23 <= Dx19;
23 - Ax <= Dx19;

Ay - 15 + 50 Sy19 - Dy19 >= 0;
Ay - 15 + 50 Sy19 + Dy19 <= 50;
Ay - 15 <= Dy19;
15 - Ay <= Dy19;

Ax - 23 + 50 Sx20 - Dx20 >= 0;
Ax - 23 + 50 Sx20 + Dx20 <= 50;
Ax - 23 <= Dx20;
23 - Ax <= Dx20;

Ay - 24 + 50 Sy20 - Dy20 >= 0;
Ay - 24 + 50 Sy20 + Dy20 <= 50;
Ay - 24 <= Dy20;
24 - Ay <= Dy20;

c1 + c2 + c3 + c4 + c5 + c6 + c7 + c8 + c9 + c10 + c11 + c12 + c13 + c14 + c15 + c16 + c17 + c18 + c19 + c20 = 1;
Dx + Dy <= Dx1 + Dy1;
Dx + Dy <= Dx2 + Dy2;
Dx + Dy <= Dx3 + Dy3;
Dx + Dy <= Dx4 + Dy4;
Dx + Dy <= Dx5 + Dy5;
Dx + Dy <= Dx6 + Dy6;
Dx + Dy <= Dx7 + Dy7;
Dx + Dy <= Dx8 + Dy8;
Dx + Dy <= Dx9 + Dy9;
Dx + Dy <= Dx10 + Dy10;
Dx + Dy <= Dx11 + Dy11;
Dx + Dy <= Dx12 + Dy12;
Dx + Dy <= Dx13 + Dy13;
Dx + Dy <= Dx14 + Dy14;
Dx + Dy <= Dx15 + Dy15;
Dx + Dy <= Dx16 + Dy16;
Dx + Dy <= Dx17 + Dy17;
Dx + Dy <= Dx18 + Dy18;
Dx + Dy <= Dx19 + Dy19;
Dx + Dy <= Dx20 + Dy20;

0 <= Ax <= 25;
0 <= Ay <= 25;

Dx >= 0;
Dy >= 0;

Dx1 >= 0;
Dy1 >= 0;
Dx2 >= 0;
Dy2 >= 0;
Dx3 >= 0;
Dy3 >= 0;
Dx4 >= 0;
Dy4 >= 0;
Dx5 >= 0;
Dy5 >= 0;
Dx6 >= 0;
Dy6 >= 0;
Dx7 >= 0;
Dy7 >= 0;
Dx8 >= 0;
Dy8 >= 0;
Dx9 >= 0;
Dy9 >= 0;
Dx10 >= 0;
Dy10 >= 0;
Dx11 >= 0;
Dy11 >= 0;
Dx12 >= 0;
Dy12 >= 0;
Dx13 >= 0;
Dy13 >= 0;
Dx14 >= 0;
Dy14 >= 0;
Dx15 >= 0;
Dy15 >= 0;
Dx16 >= 0;
Dy16 >= 0;
Dx17 >= 0;
Dy17 >= 0;
Dx18 >= 0;
Dy18 >= 0;
Dx19 >= 0;
Dy19 >= 0;
Dx20 >= 0;
Dy20 >= 0;

bin Sx1 , Sx2 , Sx3 , Sx4 , Sx5 , Sx6 , Sx7 , Sx8 , Sx9 , Sx10 , Sx11 , Sx12 , Sx13 , Sx14 , Sx15 , Sx16 , Sx17 , Sx18 , Sx19 , Sx20 ; 

bin Sy1 , Sy2 , Sy3 , Sy4 , Sy5 , Sy6 , Sy7 , Sy8 , Sy9 , Sy10 , Sy11 , Sy12 , Sy13 , Sy14 , Sy15 , Sy16 , Sy17 , Sy18 , Sy19 , Sy20 ; 

bin c1 , c2 , c3 , c4 , c5 , c6 , c7 , c8 , c9 , c10 , c11 , c12 , c13 , c14 , c15 , c16 , c17 , c18 , c19 , c20 ; 
