prueba4.txt
25
20
1 1 3
2 3 15
3 6 15
4 9 15
5 12 15
6 15 15
7 18 15
8 1 24
9 12 3
10 12 6
11 12 9
12 12 12
13 12 15
14 12 18
15 12 21
16 12 24
17 23 3
18 21 15
19 23 15
20 23 24
